==> MAXTIME              = 3600
==> VARSELECTION         = 7
==> OUTPUTLOG            = 1
FICO Xpress v8.5.9, solve started 23:54:53, Jun 8, 2019
Maximizing MILP Seating model
Original problem has:
       230 rows          300 cols         7440 elements       300 globals
Presolved problem has:
       103 rows          204 cols         2431 elements       198 globals
LP relaxation tightened
Will try to keep branch and bound tree memory usage below 7.2GB
 *** Heuristic solution found:    22.000000      Time: 0 ***
Starting concurrent solve with dual

 Concurrent-Solve,   0s
            Dual        
    objective   dual inf
 D  102.00000   .0000000
------- optimal --------
Concurrent statistics:
      Dual: 34 simplex iterations, 0.00s
Optimal solution found
 
   Its         Obj Value      S   Ninf  Nneg   Sum Dual Inf  Time
    34        102.000000      D      0     0        .000000     0
Dual solved problem
  34 simplex iterations in 0s

Final objective                         : 1.020000000000000e+02
  Max primal violation      (abs / rel) : 1.110e-16 / 9.869e-17
  Max dual violation        (abs / rel) :       0.0 /       0.0
  Max complementarity viol. (abs / rel) :       0.0 /       0.0
All values within tolerances

Starting root cutting & heuristics
 
 Its Type    BestSoln    BestBound   Sols    Add    Del     Gap     GInf   Time
   1  K     22.000000   102.000000      1     99      0   78.43%      29      0
   2  K     22.000000   102.000000      1    111     81   78.43%      43      0
   3  K     22.000000   102.000000      1     92    101   78.43%      48      0
b           28.000000   102.000000      2                 72.55%       0      0
   4  K     28.000000   102.000000      2     87     94   72.55%      35      0
   5  K     28.000000   102.000000      2    100     83   72.55%      49      0
   6  K     28.000000   102.000000      2     93     97   72.55%      47      0
   7  K     28.000000   102.000000      2     89     88   72.55%      58      0
b           35.000000   102.000000      3                 65.69%       0      0
   8  K     35.000000   102.000000      3     81     91   65.69%      37      0
   9  K     35.000000   102.000000      3     95     87   65.69%      48      0
  10  K     35.000000   102.000000      3     97     89   65.69%      58      1
  11  K     35.000000   102.000000      3     83     86   65.69%      67      1
  12  K     35.000000   102.000000      3     93     82   65.69%      72      1
  13  K     35.000000   102.000000      3     87     85   65.69%      76      1
  14  K     35.000000   102.000000      3      2     83   65.69%      39      1
  15  K     35.000000   102.000000      3      1      7   65.69%      39      1
  16  K     35.000000   102.000000      3      1     13   65.69%      39      1
  17  K     35.000000   102.000000      3     96      8   65.69%      58      1
  18  K     35.000000   102.000000      3      2     91   65.69%      39      1
b           47.000000   102.000000      4                 53.92%       0      1
  19  K     47.000000   102.000000      4     93     14   53.92%      52      1
  20  K     47.000000   102.000000      4     99    150   53.92%      59      1
  21  G     47.000000   102.000000      4     39     31   53.92%      41      1
  22  G     47.000000   102.000000      4     70    110   53.92%      55      1
Heuristic search started
Heuristic search stopped
 
Cuts in the matrix         : 39
Cut elements in the matrix : 1106
 
Starting tree search.
Deterministic mode with up to 4 running threads and up to 8 tasks.
 
    Node     BestSoln    BestBound   Sols Active  Depth     Gap     GInf   Time
       1    47.000000   102.000000      4      2      1   53.92%      45      1
       2    47.000000   102.000000      4      2      2   53.92%      57      1
       3    47.000000   102.000000      4      2      3   53.92%      28      1
       4    47.000000   102.000000      4      2      4   53.92%      40      1
       5    47.000000   102.000000      4      5      2   53.92%      35      1
       6    47.000000   102.000000      4      5      3   53.92%      48      1
       7    47.000000   102.000000      4      5      3   53.92%      55      1
       8    47.000000   102.000000      4      5      4   53.92%      34      1
       9    47.000000   102.000000      4      8      4   53.92%      39      1
      10    47.000000   102.000000      4      8      4   53.92%      42      1
      20    47.000000   102.000000      4     17      7   53.92%      60      1
      32    47.000000   102.000000      4     17     15   53.92%      13      1
      48    47.000000   102.000000      4     17     16   53.92%      43      1
      66    47.000000   102.000000      4     17     28   53.92%       7      1
      88    47.000000   102.000000      4     34     16   53.92%      33      1
      99    47.000000   102.000000      4     34      7   53.92%      55      1
     111    47.000000   102.000000      4     34     17   53.92%      49      1
a    200    51.000000   102.000000      5     61     22   50.00%       0      1
     224    51.000000   102.000000      5     61     30   50.00%      20      1
B&B tree size: 0.9MB total
 
    Node     BestSoln    BestBound   Sols Active  Depth     Gap     GInf   Time
a    255    55.000000   102.000000      6     61     23   46.08%       0      1
     337    55.000000   102.000000      6     61     17   46.08%      23      1
a    432    58.000000   102.000000      7     61     23   43.14%       0      1
     449    58.000000   102.000000      7     61     25   43.14%      25      1
     553    58.000000   102.000000      7     87     16   43.14%      40      2
     658    58.000000   102.000000      7    160      1   43.14%       1      2
     771    58.000000   102.000000      7    160     25   43.14%      31      2
     887    58.000000   101.627267      7    243     24   42.93%      29      2
     991    58.000000   101.627267      7    243     19   42.93%      21      2
    1094    58.000000   101.627267      7    318     18   42.93%      38      2
    1203    58.000000   101.627267      7    318     17   42.93%      37      2
    1308    58.000000   101.627267      7    366     18   42.93%      28      2
    1417    58.000000   101.627267      7    427     15   42.93%      26      2
    1529    58.000000   101.627267      7    427     23   42.93%      13      2
    1644    58.000000   101.627267      7    427     21   42.93%      18      2
    1755    58.000000   101.627267      7    427     20   42.93%      38      3
    1858    58.000000   101.627267      7    427     21   42.93%      48      3
    1960    58.000000   101.627267      7    427     21   42.93%      46      3
    2065    58.000000   101.627267      7    427     19   42.93%      32      3
    2165    58.000000   101.627267      7    427     17   42.93%      53      3
B&B tree size: 6.4MB total
 
    Node     BestSoln    BestBound   Sols Active  Depth     Gap     GInf   Time
    2286    58.000000   101.627267      7    427     22   42.93%      31      3
    2386    58.000000   101.627267      7    499     17   42.93%      35      3
a   2462    59.000000   101.627267      8    593     21   41.94%       0      3
    2494    59.000000   101.627267      8    593     13   41.94%      38      3
    2604    59.000000   101.627267      8    593     16   41.94%      40      3
    2709    59.000000   100.066065      8    687     16   41.04%      58      3
    2817    59.000000   100.066065      8    687     14   41.04%      52      3
    2918    59.000000   100.066065      8    687     17   41.04%      49      3
    3027    59.000000   100.066065      8    687     16   41.04%      34      4
    3128    59.000000   100.066065      8    687     21   41.04%      14      4
    3235    59.000000   100.066065      8    799     20   41.04%      42      4
    3335    59.000000   100.066065      8    799     13   41.04%      57      4
    3437    59.000000   100.066065      8    889     16   41.04%      30      4
    3546    59.000000   100.066065      8    999     21   41.04%      32      4
    3654    59.000000   100.066065      8    999     18   41.04%      35      4
    3762    59.000000   100.066065      8    999     20   41.04%      35      4
    3871    59.000000   100.066065      8   1083     20   41.04%      35      4
    3976    59.000000   100.066065      8   1083     16   41.04%      35      4
    4089    59.000000   100.066065      8   1083     27   41.04%      26      4
    4190    59.000000   100.066065      8   1083     20   41.04%      47      4
B&B tree size: 11MB total
 
    Node     BestSoln    BestBound   Sols Active  Depth     Gap     GInf   Time
    4290    59.000000   100.066065      8   1083     16   41.04%      31      5
    4405    59.000000   100.066065      8   1230     25   41.04%      17      5
    4506    59.000000   100.066065      8   1230     20   41.04%      37      5
    4627    59.000000   100.066065      8   1230     19   41.04%      33      5
    4732    59.000000   100.066065      8   1230     23   41.04%      39      5
    4848    59.000000   100.066065      8   1230     28   41.04%      14      5
    4954    59.000000   100.066065      8   1286     18   41.04%      27      5
    5060    59.000000   100.066065      8   1286     22   41.04%      21      5
    5169    59.000000   100.066065      8   1286     16   41.04%      38      5
    5282    59.000000   100.066065      8   1286     23   41.04%      25      5
    5393    59.000000   100.066065      8   1286     24   41.04%      29      5
    5499    59.000000   100.066065      8   1286     21   41.04%      39      5
    5601    59.000000   100.066065      8   1413     15   41.04%      29      5
    5705    59.000000    96.446957      8   1535     16   38.83%      48      5
    5819    59.000000    96.446957      8   1535     19   38.83%      33      6
    5935    59.000000    96.446957      8   1606     13   38.83%      34      6
    6049    59.000000    96.446957      8   1678     23   38.83%      34      6
    6154    59.000000    96.446957      8   1678     18   38.83%      36      6
    6258    59.000000    96.446957      8   1678     25   38.83%      25      6
    6369    59.000000    96.446957      8   1822     15   38.83%      42      6
B&B tree size: 16MB total
 
    Node     BestSoln    BestBound   Sols Active  Depth     Gap     GInf   Time
    6474    59.000000    96.446957      8   1943     17   38.83%      30      6
    6584    59.000000    96.446957      8   1943     16   38.83%      27      6
    6687    59.000000    93.381131      8   1946     18   36.82%      34      6
    6804    59.000000    93.381131      8   1946     14   36.82%      41      6
    6923    59.000000    93.381131      8   1946     16   36.82%      33      6
    7023    59.000000    93.381131      8   1946     18   36.82%      26      6
    7130    59.000000    93.381131      8   2042     16   36.82%      44      6
    7230    59.000000    93.381131      8   2042     11   36.82%      62      7
    7340    59.000000    93.381131      8   2042     19   36.82%      23      7
    7443    59.000000    93.381131      8   2165     21   36.82%      44      7
    7550    59.000000    93.381131      8   2165     18   36.82%      28      7
    7660    59.000000    93.381131      8   2165     23   36.82%      25      7
    7772    59.000000    90.877420      8   2213     18   35.08%      30      7
    7875    59.000000    90.877420      8   2213     24   35.08%      18      7
    7979    59.000000    90.877420      8   2213     21   35.08%      33      7
    8088    59.000000    90.877420      8   2213     16   35.08%      32      7
    8191    59.000000    90.877420      8   2213     19   35.08%      39      7
    8302    59.000000    90.877420      8   2299     19   35.08%      27      7
    8405    59.000000    90.877420      8   2299     21   35.08%      25      7
    8507    59.000000    90.877420      8   2299     20   35.08%      38      8
B&B tree size: 20MB total
 
    Node     BestSoln    BestBound   Sols Active  Depth     Gap     GInf   Time
    8610    59.000000    89.515251      8   2391      1   34.09%       1      8
    8714    59.000000    89.515251      8   2391     19   34.09%      26      8
    8823    59.000000    89.515251      8   2391     18   34.09%      23      8
    8932    59.000000    89.515251      8   2391     18   34.09%      42      8
    9038    59.000000    89.515251      8   2458     25   34.09%      36      8
    9138    59.000000    89.515251      8   2490     15   34.09%      53      8
    9250    59.000000    89.515251      8   2490     18   34.09%      38      8
    9351    59.000000    88.813624      8   2634     20   33.57%      35      8
    9454    59.000000    88.813624      8   2634     17   33.57%      18      8
    9567    59.000000    88.813624      8   2634     19   33.57%      32      8
    9673    59.000000    88.813624      8   2634     21   33.57%      21      8
    9792    59.000000    88.813624      8   2724     24   33.57%      20      9
    9900    59.000000    88.813624      8   2775     18   33.57%      37      9
   10004    59.000000    88.813624      8   2775     20   33.57%      34      9
   11004    59.000000    87.348286      8   2971     20   32.45%      26      9
   12010    59.000000    87.348286      8   3031     22   32.45%      28     10
a  12773    60.000000    86.162694      9   3250     24   30.36%       0     11
   13027    60.000000    85.846699      9   3245     21   30.11%      29     11
   14034    60.000000    85.846699      9   3333     16   30.11%      46     11
   15035    60.000000    84.473432      9   3536     15   28.97%      34     12
B&B tree size: 31MB total
 
    Node     BestSoln    BestBound   Sols Active  Depth     Gap     GInf   Time
   16039    60.000000    83.966750      9   3647     22   28.54%      27     13
   17051    60.000000    83.076136      9   3756     21   27.78%      24     14
   18060    60.000000    82.548782      9   3821     10   27.32%      35     14
   19062    60.000000    82.000000      9   3934     20   26.83%      24     15
   20064    60.000000    82.000000      9   3990     22   26.83%      20     16
   21077    60.000000    81.133333      9   4033     23   26.05%      39     16
   22078    60.000000    80.774648      9   4079     11   25.72%      39     17
   23086    60.000000    80.074310      9   4159     18   25.07%      40     18
   24089    60.000000    80.000000      9   4182     18   25.00%      38     19
   25092    60.000000    79.352392      9   4189     15   24.39%      17     19
   26108    60.000000    79.000000      9   4199     22   24.05%      20     20
   27124    60.000000    78.996538      9   4274     19   24.05%      46     21
   28125    60.000000    78.000000      9   4299     25   23.08%      21     21
   29128    60.000000    78.000000      9   4295     18   23.08%      29     22
   30135    60.000000    77.038829      9   4278     16   22.12%      29     22
   31137    60.000000    77.000000      9   4219     22   22.08%      22     23
   32137    60.000000    76.000000      9   4187     22   21.05%      48     24
   33143    60.000000    75.990317      9   4134     24   21.04%      33     24
   34144    60.000000    75.415572      9   4116     23   20.44%      41     25
   35156    60.000000    75.415572      9   4065     21   20.44%      23     25
B&B tree size: 42MB total
 
    Node     BestSoln    BestBound   Sols Active  Depth     Gap     GInf   Time
   36162    60.000000    74.728505      9   4087     21   19.71%      28     26
   37163    60.000000    74.089207      9   4033     22   19.02%      21     26
   38176    60.000000    74.000000      9   4043     23   18.92%      27     27
   39178    60.000000    74.000000      9   4004     25   18.92%      31     27
   40183    60.000000    73.104574      9   3914     16   17.93%      39     28
   41185    60.000000    73.000000      9   3860     19   17.81%      19     28
   42186    60.000000    73.000000      9   3785     21   17.81%      27     29
   43199    60.000000    72.000000      9   3636     29   16.67%       8     29
   44210    60.000000    72.000000      9   3535     15   16.67%      27     30
   45217    60.000000    71.302614      9   3392     26   15.85%      26     31
   46223    60.000000    71.000000      9   3337     20   15.49%      12     31
   47224    60.000000    70.122887      9   3115     23   14.44%      30     32
   48227    60.000000    70.000000      9   2936     19   14.29%      30     32
   49235    60.000000    70.000000      9   2752     25   14.29%      47     33
   50235    60.000000    68.753390      9   2561     20   12.73%      38     33
   51238    60.000000    68.134921      9   2332     19   11.94%      24     34
   52238    60.000000    68.000000      9   2188     19   11.76%      38     34
   53238    60.000000    67.000000      9   1904     21   10.45%      20     34
   54240    60.000000    66.888889      9   1626     22   10.30%      21     35
   55240    60.000000    65.319929      9   1184     31    8.14%      33     35
B&B tree size: 18MB total
 
    Node     BestSoln    BestBound   Sols Active  Depth     Gap     GInf   Time
   56240    60.000000    63.608556      9    602     17    5.67%      31     36
   57242    60.000000    62.000000      9     46     25    3.23%      29     36
 *** Search completed ***     Time:    36 Nodes:      57331
Number of integer feasible solutions found is 9
Best integer solution found is    60.000000
Best bound is    60.000000
Uncrunching matrix
